p cnf 109 361
4 -2 0
4 3 0
2 -3 -4 0
5 6 -7 0
-5 -6 -7 0
5 -6 7 0
-5 6 7 0
-8 -4 0
-8 7 0
4 -7 8 0
-9 -1 0
-9 8 0
1 -8 9 0
-3 -11 -12 0
3 11 -12 0
-3 11 12 0
3 -11 12 0
13 -10 0
13 -12 0
10 12 -13 0
5 14 -15 0
-5 -14 -15 0
5 -14 15 0
-5 14 15 0
16 15 0
16 1 0
-15 -1 -16 0
-1 16 -17 0
1 -16 -17 0
-1 -16 17 0
1 16 17 0
-19 -14 0
-19 -18 0
14 18 19 0
-20 -17 0
-20 -19 0
17 19 20 0
20 -21 -22 0
-20 21 -22 0
20 21 22 0
-20 -21 22 0
23 13 0
23 -22 0
-13 22 -23 0
-25 -2 0
-25 -24 0
2 24 25 0
12 25 -26 0
-12 -25 -26 0
12 -25 26 0
-12 25 26 0
-27 -26 0
-27 -6 0
26 6 27 0
-28 17 0
-28 27 0
-17 -27 28 0
30 -28 0
30 29 0
28 -29 -30 0
31 -16 0
31 -30 0
16 30 -31 0
-15 16 -32 0
15 -16 -32 0
-15 -16 32 0
15 16 32 0
-24 32 -33 0
24 -32 -33 0
-24 -32 33 0
24 32 33 0
-14 18 -34 0
14 -18 -34 0
-14 -18 34 0
14 18 34 0
35 34 0
35 29 0
-34 -29 -35 0
36 18 0
36 -35 0
-18 35 -36 0
33 36 -37 0
-33 -36 -37 0
33 -36 37 0
-33 36 37 0
-38 31 0
-38 37 0
-31 -37 38 0
7 -39 -40 0
-7 39 -40 0
7 39 40 0
-7 -39 40 0
-11 2 -41 0
11 -2 -41 0
-11 -2 41 0
11 2 41 0
42 -40 0
42 -41 0
40 41 -42 0
44 11 0
44 -43 0
-11 43 -44 0
-45 -42 0
-45 -44 0
42 44 45 0
-46 -10 0
-46 -11 0
10 11 46 0
-47 -4 0
-47 -46 0
4 46 47 0
-48 47 0
-48 -34 0
-47 34 48 0
49 -48 0
49 -34 0
48 34 -49 0
-50 -8 0
-50 24 0
8 -24 50 0
-49 50 -51 0
49 -50 -51 0
-49 -50 51 0
49 50 51 0
-52 51 0
-52 -5 0
-51 5 52 0
-1 4 -53 0
1 -4 -53 0
-1 -4 53 0
1 4 53 0
54 25 0
54 53 0
-25 -53 -54 0
-55 -52 0
-55 54 0
52 -54 55 0
56 25 0
56 10 0
-25 -10 -56 0
56 8 -57 0
-56 -8 -57 0
56 -8 57 0
-56 8 57 0
-58 -21 0
-58 57 0
21 -57 58 0
-40 11 -60 0
40 -11 -60 0
-40 -11 60 0
40 11 60 0
-60 -10 -61 0
60 10 -61 0
-60 10 61 0
60 -10 61 0
-62 -59 0
-62 -61 0
59 61 62 0
58 -62 -63 0
-58 62 -63 0
58 62 63 0
-58 -62 63 0
55 -63 -64 0
-55 63 -64 0
55 63 64 0
-55 -63 64 0
-45 64 -65 0
45 -64 -65 0
-45 -64 65 0
45 64 65 0
-3 48 -66 0
3 -48 -66 0
-3 -48 66 0
3 48 66 0
-25 67 -68 0
25 -67 -68 0
-25 -67 68 0
25 67 68 0
66 68 -69 0
-66 -68 -69 0
66 -68 69 0
-66 68 69 0
70 -19 0
70 -39 0
19 39 -70 0
-71 70 0
-71 -16 0
-70 16 71 0
-69 -71 -72 0
69 71 -72 0
-69 71 72 0
69 -71 72 0
73 48 0
73 -17 0
-48 17 -73 0
72 73 -74 0
-72 -73 -74 0
72 -73 74 0
-72 73 74 0
75 -17 0
75 16 0
17 -16 -75 0
-76 8 0
-76 66 0
-8 -66 76 0
-77 76 0
-77 68 0
-76 -68 77 0
75 -77 -78 0
-75 77 -78 0
75 77 78 0
-75 -77 78 0
79 74 0
79 78 0
-74 -78 -79 0
-65 -79 -80 0
65 79 -80 0
-65 79 80 0
65 -79 80 0
-81 -38 0
-81 80 0
38 -80 81 0
82 -16 0
82 18 0
16 -18 -82 0
48 -82 -83 0
-48 82 -83 0
48 82 83 0
-48 -82 83 0
84 -81 0
84 -83 0
81 83 -84 0
23 84 -85 0
-23 -84 -85 0
23 -84 85 0
-23 84 85 0
86 67 0
86 -10 0
-67 10 -86 0
-87 46 0
-87 29 0
-46 -29 87 0
88 86 0
88 87 0
-86 -87 -88 0
89 14 0
89 68 0
-14 -68 -89 0
-90 88 0
-90 89 0
-88 -89 90 0
-91 -21 0
-91 3 0
21 -3 91 0
-92 -21 0
-92 -17 0
21 17 92 0
59 -93 0
-59 -93 0
-94 92 0
-94 93 0
-92 -93 94 0
95 3 0
95 29 0
-3 -29 -95 0
-36 -8 -96 0
36 8 -96 0
-36 8 96 0
36 -8 96 0
4 -5 -97 0
-4 5 -97 0
4 5 97 0
-4 -5 97 0
96 -97 -98 0
-96 97 -98 0
96 97 98 0
-96 -97 98 0
-99 -14 0
-99 -7 0
14 7 99 0
100 -67 0
100 -99 0
67 99 -100 0
98 100 -101 0
-98 -100 -101 0
98 -100 101 0
-98 100 101 0
-102 -95 0
-102 -101 0
95 101 102 0
-94 -102 -103 0
94 102 -103 0
-94 102 103 0
94 -102 103 0
-104 -6 0
-104 -12 0
6 12 104 0
-105 103 0
-105 104 0
-103 -104 105 0
91 105 -106 0
-91 -105 -106 0
91 -105 106 0
-91 105 106 0
-107 90 0
-107 106 0
-90 -106 107 0
-108 -85 0
-108 107 0
85 -107 108 0
109 9 0
109 -108 0
-9 108 -109 0
51 -27 0
-40 -38 0
49 82 109 85 0
71 97 103 18 31 0
104 4 49 -102 -69 0
-33 -101 81 0
64 -53 34 42 0
28 44 -72 0
-96 -3 0
-19 -57 95 -80 -67 -68 0
104 -80 -91 0
71 58 0
44 81 -84 0
24 -92 -28 -95 -27 -103 0
88 -40 -18 -103 -66 0
-94 -83 -102 12 46 89 0
64 -48 27 -19 -60 0
-100 2 0
-30 98 68 45 -26 59 0
-82 -48 -18 0
-94 10 -19 0
52 84 0
-93 42 50 -100 54 77 0
-9 40 77 -57 0
-94 -88 0
-98 -28 0
-32 106 -29 10 -76 0
99 95 0
87 56 35 -36 96 0
-71 25 0
-7 -5 0
64 -15 0
46 -93 31 51 0
-87 69 -50 55 59 -93 0
-33 -48 47 -103 0
64 -32 0
47 93 0
7 25 38 10 0
3 88 0
12 -66 -35 -60 105 0
42 60 -105 -50 -28 2 0
-65 -96 -17 -35 20 0
-1 51 -65 33 -2 0
20 -99 5 2 67 31 0
98 -34 -19 53 -70 -32 0
2 13 0
-73 100 109 67 -50 0
109 0
